c colouring generated by benchmark framework
p edge 35 595
v 1 20
v 2 27
v 3 2
v 4 28
v 5 5
v 6 12
v 7 22
v 8 25
v 9 16
v 10 26
v 11 34
v 12 15
v 13 13
v 14 17
v 15 0
v 16 24
v 17 29
v 18 33
v 19 10
v 20 19
v 21 7
v 22 4
v 23 11
v 24 1
v 25 31
v 26 30
v 27 8
v 28 21
v 29 3
v 30 23
v 31 14
v 32 9
v 33 18
v 34 6
v 35 32
